Minimize
	value: tt

Subject to
tt + 1000 s_1_1 > 0.0
tt - t_1_1 - 1006.219592 s_1_1  + 3.109796 s_1_8  + 3.109796 s_1_7  > -977.551700
tt + 1000 s_2_1 > 0.0
tt - t_2_1 - 1005.653373 s_2_1  + 2.826686 s_2_8  + 2.826686 s_2_7  > -958.053125
tt + 1000 s_1_2 > 0.0
tt - t_1_2 - 1003.109796 s_1_2  + 3.109796 s_1_7  > -977.540900
tt + 1000 s_2_2 > 0.0
tt - t_2_2 - 1002.826686 s_2_2  + 2.826686 s_2_7  > -957.681544
tt + 1000 s_1_3 > 0.0
tt - t_1_3 - 1006.219592 s_1_3  + 3.109796 s_1_8  + 3.109796 s_1_7  > -997.541100
tt + 1000 s_2_3 > 0.0
tt - t_2_3 - 1005.653373 s_2_3  + 2.826686 s_2_8  + 2.826686 s_2_7  > -994.326950
tt + 1000 s_1_4 > 0.0
tt - t_1_4 - 1003.109796 s_1_4  + 3.109796 s_1_7  > -995.077033
tt + 1000 s_2_4 > 0.0
tt - t_2_4 - 1002.826686 s_2_4  + 2.826686 s_2_7  > -991.697683
tt + 1000 s_1_5 > 0.0
tt - t_1_5 - 1003.109796 s_1_5  + 3.109796 s_1_8  > -989.312800
tt + 1000 s_2_5 > 0.0
tt - t_2_5 - 1002.826686 s_2_5  + 2.826686 s_2_8  > -979.078133
tt + 1000 s_1_6 > 0.0
tt - t_1_6 - 1018.658775 s_1_6  + 3.109796 s_1_3  + 3.109796 s_1_5  + 3.109796 s_1_4  + 3.109796 s_1_7  + 3.109796 s_1_1  + 3.109796 s_1_2  > -998.310000
tt + 1000 s_2_6 > 0.0
tt - t_2_6 - 1016.960118 s_2_6  + 2.826686 s_2_3  + 2.826686 s_2_5  + 2.826686 s_2_4  + 2.826686 s_2_7  + 2.826686 s_2_1  + 2.826686 s_2_2  > -996.004200
tt + 1000 s_1_7 > 0.0
tt - t_1_7 - 1000.000000 s_1_7  > -947.856800
tt + 1000 s_2_7 > 0.0
tt - t_2_7 - 1000.000000 s_2_7  > -955.148278
tt + 1000 s_1_8 > 0.0
tt - t_1_8 - 1000.000000 s_1_8  > -955.152700
tt + 1000 s_2_8 > 0.0
tt - t_2_8 - 1000.000000 s_2_8  > -956.843100
s_1_1 + s_2_1 = 1
s_1_2 + s_2_2 = 1
s_1_3 + s_2_3 = 1
s_1_4 + s_2_4 = 1
s_1_5 + s_2_5 = 1
s_1_6 + s_2_6 = 1
s_1_7 + s_2_7 = 1
s_1_8 + s_2_8 = 1
s_1_1 + s_1_2 + 1000 r_1_1_2 >= 2
- s_1_1 - s_1_2 - 1000 r_1_1_2 >= -1001
t_1_1 - t_1_2 - 1000.000000 u_1_1_2 - 3.109796 s_1_2  + 3.109796 s_1_7  + 2000.000000 r_1_1_2 > -977.540900
s_2_1 + s_2_2 + 1000 r_2_1_2 >= 2
- s_2_1 - s_2_2 - 1000 r_2_1_2 >= -1001
t_2_1 - t_2_2 - 1000.000000 u_2_1_2 - 2.826686 s_2_2  + 2.826686 s_2_7  + 2000.000000 r_2_1_2 > -957.681544
s_1_1 + s_1_3 + 1000 r_1_1_3 >= 2
- s_1_1 - s_1_3 - 1000 r_1_1_3 >= -1001
t_1_1 - t_1_3 - 1000.000000 u_1_1_3 - 6.219592 s_1_3  + 3.109796 s_1_8  + 3.109796 s_1_7  + 2000.000000 r_1_1_3 > -997.541100
s_2_1 + s_2_3 + 1000 r_2_1_3 >= 2
- s_2_1 - s_2_3 - 1000 r_2_1_3 >= -1001
t_2_1 - t_2_3 - 1000.000000 u_2_1_3 - 5.653373 s_2_3  + 2.826686 s_2_8  + 2.826686 s_2_7  + 2000.000000 r_2_1_3 > -994.326950
s_1_1 + s_1_4 + 1000 r_1_1_4 >= 2
- s_1_1 - s_1_4 - 1000 r_1_1_4 >= -1001
t_1_1 - t_1_4 - 1000.000000 u_1_1_4 - 3.109796 s_1_4  + 3.109796 s_1_7  + 2000.000000 r_1_1_4 > -995.077033
s_2_1 + s_2_4 + 1000 r_2_1_4 >= 2
- s_2_1 - s_2_4 - 1000 r_2_1_4 >= -1001
t_2_1 - t_2_4 - 1000.000000 u_2_1_4 - 2.826686 s_2_4  + 2.826686 s_2_7  + 2000.000000 r_2_1_4 > -991.697683
s_1_1 + s_1_5 + 1000 r_1_1_5 >= 2
- s_1_1 - s_1_5 - 1000 r_1_1_5 >= -1001
t_1_1 - t_1_5 - 1000.000000 u_1_1_5 - 3.109796 s_1_5  + 3.109796 s_1_8  + 2000.000000 r_1_1_5 > -989.312800
s_2_1 + s_2_5 + 1000 r_2_1_5 >= 2
- s_2_1 - s_2_5 - 1000 r_2_1_5 >= -1001
t_2_1 - t_2_5 - 1000.000000 u_2_1_5 - 2.826686 s_2_5  + 2.826686 s_2_8  + 2000.000000 r_2_1_5 > -979.078133
t_1_6 - t_1_1 - 1006.219592 s_1_1  + 3.109796 s_1_8  + 3.109796 s_1_7  > -977.551700
t_1_6 - t_2_1 - 1005.653373 s_2_1  + 2.826686 s_2_8  + 2.826686 s_2_7  > -958.053125
t_2_6 - t_1_1 - 1006.219592 s_1_1  + 3.109796 s_1_8  + 3.109796 s_1_7  > -977.551700
t_2_6 - t_2_1 - 1005.653373 s_2_1  + 2.826686 s_2_8  + 2.826686 s_2_7  > -958.053125
t_1_1 - t_1_7 - 1000.000000 s_1_7  > -947.856800
t_1_1 - t_2_7 - 1000.000000 s_2_7  > -955.148278
t_2_1 - t_1_7 - 1000.000000 s_1_7  > -947.856800
t_2_1 - t_2_7 - 1000.000000 s_2_7  > -955.148278
t_1_1 - t_1_8 - 1000.000000 s_1_8  > -955.152700
t_1_1 - t_2_8 - 1000.000000 s_2_8  > -956.843100
t_2_1 - t_1_8 - 1000.000000 s_1_8  > -955.152700
t_2_1 - t_2_8 - 1000.000000 s_2_8  > -956.843100
s_1_2 + s_1_1 + 1000 r_1_1_2 >= 2
- s_1_2 - s_1_1 - 1000 r_1_1_2 >= -1001
t_1_2 - t_1_1 + 1000.000000 u_1_1_2 - 6.219592 s_1_1  + 3.109796 s_1_8  + 3.109796 s_1_7  + 2000.000000 r_1_1_2 > 22.448300
s_2_2 + s_2_1 + 1000 r_2_1_2 >= 2
- s_2_2 - s_2_1 - 1000 r_2_1_2 >= -1001
t_2_2 - t_2_1 + 1000.000000 u_2_1_2 - 5.653373 s_2_1  + 2.826686 s_2_8  + 2.826686 s_2_7  + 2000.000000 r_2_1_2 > 41.946875
s_1_2 + s_1_3 + 1000 r_1_2_3 >= 2
- s_1_2 - s_1_3 - 1000 r_1_2_3 >= -1001
t_1_2 - t_1_3 - 1000.000000 u_1_2_3 - 6.219592 s_1_3  + 3.109796 s_1_8  + 3.109796 s_1_7  + 2000.000000 r_1_2_3 > -997.541100
s_2_2 + s_2_3 + 1000 r_2_2_3 >= 2
- s_2_2 - s_2_3 - 1000 r_2_2_3 >= -1001
t_2_2 - t_2_3 - 1000.000000 u_2_2_3 - 5.653373 s_2_3  + 2.826686 s_2_8  + 2.826686 s_2_7  + 2000.000000 r_2_2_3 > -994.326950
s_1_2 + s_1_4 + 1000 r_1_2_4 >= 2
- s_1_2 - s_1_4 - 1000 r_1_2_4 >= -1001
t_1_2 - t_1_4 - 1000.000000 u_1_2_4 - 3.109796 s_1_4  + 3.109796 s_1_7  + 2000.000000 r_1_2_4 > -995.077033
s_2_2 + s_2_4 + 1000 r_2_2_4 >= 2
- s_2_2 - s_2_4 - 1000 r_2_2_4 >= -1001
t_2_2 - t_2_4 - 1000.000000 u_2_2_4 - 2.826686 s_2_4  + 2.826686 s_2_7  + 2000.000000 r_2_2_4 > -991.697683
s_1_2 + s_1_5 + 1000 r_1_2_5 >= 2
- s_1_2 - s_1_5 - 1000 r_1_2_5 >= -1001
t_1_2 - t_1_5 - 1000.000000 u_1_2_5 - 3.109796 s_1_5  + 3.109796 s_1_8  + 2000.000000 r_1_2_5 > -989.312800
s_2_2 + s_2_5 + 1000 r_2_2_5 >= 2
- s_2_2 - s_2_5 - 1000 r_2_2_5 >= -1001
t_2_2 - t_2_5 - 1000.000000 u_2_2_5 - 2.826686 s_2_5  + 2.826686 s_2_8  + 2000.000000 r_2_2_5 > -979.078133
t_1_6 - t_1_2 - 1003.109796 s_1_2  + 3.109796 s_1_7  > -977.540900
t_1_6 - t_2_2 - 1002.826686 s_2_2  + 2.826686 s_2_7  > -957.681544
t_2_6 - t_1_2 - 1003.109796 s_1_2  + 3.109796 s_1_7  > -977.540900
t_2_6 - t_2_2 - 1002.826686 s_2_2  + 2.826686 s_2_7  > -957.681544
t_1_2 - t_1_7 - 1000.000000 s_1_7  > -947.856800
t_1_2 - t_2_7 - 1000.000000 s_2_7  > -955.148278
t_2_2 - t_1_7 - 1000.000000 s_1_7  > -947.856800
t_2_2 - t_2_7 - 1000.000000 s_2_7  > -955.148278
s_1_2 + s_1_8 + 1000 r_1_2_8 >= 2
- s_1_2 - s_1_8 - 1000 r_1_2_8 >= -1001
t_1_2 - t_1_8 - 1000.000000 u_1_2_8 - 0.000000 s_1_8  + 2000.000000 r_1_2_8 > -955.152700
s_2_2 + s_2_8 + 1000 r_2_2_8 >= 2
- s_2_2 - s_2_8 - 1000 r_2_2_8 >= -1001
t_2_2 - t_2_8 - 1000.000000 u_2_2_8 - 0.000000 s_2_8  + 2000.000000 r_2_2_8 > -956.843100
s_1_3 + s_1_1 + 1000 r_1_1_3 >= 2
- s_1_3 - s_1_1 - 1000 r_1_1_3 >= -1001
t_1_3 - t_1_1 + 1000.000000 u_1_1_3 - 6.219592 s_1_1  + 3.109796 s_1_8  + 3.109796 s_1_7  + 2000.000000 r_1_1_3 > 22.448300
s_2_3 + s_2_1 + 1000 r_2_1_3 >= 2
- s_2_3 - s_2_1 - 1000 r_2_1_3 >= -1001
t_2_3 - t_2_1 + 1000.000000 u_2_1_3 - 5.653373 s_2_1  + 2.826686 s_2_8  + 2.826686 s_2_7  + 2000.000000 r_2_1_3 > 41.946875
s_1_3 + s_1_2 + 1000 r_1_2_3 >= 2
- s_1_3 - s_1_2 - 1000 r_1_2_3 >= -1001
t_1_3 - t_1_2 + 1000.000000 u_1_2_3 - 3.109796 s_1_2  + 3.109796 s_1_7  + 2000.000000 r_1_2_3 > 22.459100
s_2_3 + s_2_2 + 1000 r_2_2_3 >= 2
- s_2_3 - s_2_2 - 1000 r_2_2_3 >= -1001
t_2_3 - t_2_2 + 1000.000000 u_2_2_3 - 2.826686 s_2_2  + 2.826686 s_2_7  + 2000.000000 r_2_2_3 > 42.318456
s_1_3 + s_1_4 + 1000 r_1_3_4 >= 2
- s_1_3 - s_1_4 - 1000 r_1_3_4 >= -1001
t_1_3 - t_1_4 - 1000.000000 u_1_3_4 - 3.109796 s_1_4  + 3.109796 s_1_7  + 2000.000000 r_1_3_4 > -995.077033
s_2_3 + s_2_4 + 1000 r_2_3_4 >= 2
- s_2_3 - s_2_4 - 1000 r_2_3_4 >= -1001
t_2_3 - t_2_4 - 1000.000000 u_2_3_4 - 2.826686 s_2_4  + 2.826686 s_2_7  + 2000.000000 r_2_3_4 > -991.697683
s_1_3 + s_1_5 + 1000 r_1_3_5 >= 2
- s_1_3 - s_1_5 - 1000 r_1_3_5 >= -1001
t_1_3 - t_1_5 - 1000.000000 u_1_3_5 - 3.109796 s_1_5  + 3.109796 s_1_8  + 2000.000000 r_1_3_5 > -989.312800
s_2_3 + s_2_5 + 1000 r_2_3_5 >= 2
- s_2_3 - s_2_5 - 1000 r_2_3_5 >= -1001
t_2_3 - t_2_5 - 1000.000000 u_2_3_5 - 2.826686 s_2_5  + 2.826686 s_2_8  + 2000.000000 r_2_3_5 > -979.078133
t_1_6 - t_1_3 - 1006.219592 s_1_3  + 3.109796 s_1_8  + 3.109796 s_1_7  > -997.541100
t_1_6 - t_2_3 - 1005.653373 s_2_3  + 2.826686 s_2_8  + 2.826686 s_2_7  > -994.326950
t_2_6 - t_1_3 - 1006.219592 s_1_3  + 3.109796 s_1_8  + 3.109796 s_1_7  > -997.541100
t_2_6 - t_2_3 - 1005.653373 s_2_3  + 2.826686 s_2_8  + 2.826686 s_2_7  > -994.326950
t_1_3 - t_1_7 - 1000.000000 s_1_7  > -947.856800
t_1_3 - t_2_7 - 1000.000000 s_2_7  > -955.148278
t_2_3 - t_1_7 - 1000.000000 s_1_7  > -947.856800
t_2_3 - t_2_7 - 1000.000000 s_2_7  > -955.148278
t_1_3 - t_1_8 - 1000.000000 s_1_8  > -955.152700
t_1_3 - t_2_8 - 1000.000000 s_2_8  > -956.843100
t_2_3 - t_1_8 - 1000.000000 s_1_8  > -955.152700
t_2_3 - t_2_8 - 1000.000000 s_2_8  > -956.843100
s_1_4 + s_1_1 + 1000 r_1_1_4 >= 2
- s_1_4 - s_1_1 - 1000 r_1_1_4 >= -1001
t_1_4 - t_1_1 + 1000.000000 u_1_1_4 - 6.219592 s_1_1  + 3.109796 s_1_8  + 3.109796 s_1_7  + 2000.000000 r_1_1_4 > 22.448300
s_2_4 + s_2_1 + 1000 r_2_1_4 >= 2
- s_2_4 - s_2_1 - 1000 r_2_1_4 >= -1001
t_2_4 - t_2_1 + 1000.000000 u_2_1_4 - 5.653373 s_2_1  + 2.826686 s_2_8  + 2.826686 s_2_7  + 2000.000000 r_2_1_4 > 41.946875
s_1_4 + s_1_2 + 1000 r_1_2_4 >= 2
- s_1_4 - s_1_2 - 1000 r_1_2_4 >= -1001
t_1_4 - t_1_2 + 1000.000000 u_1_2_4 - 3.109796 s_1_2  + 3.109796 s_1_7  + 2000.000000 r_1_2_4 > 22.459100
s_2_4 + s_2_2 + 1000 r_2_2_4 >= 2
- s_2_4 - s_2_2 - 1000 r_2_2_4 >= -1001
t_2_4 - t_2_2 + 1000.000000 u_2_2_4 - 2.826686 s_2_2  + 2.826686 s_2_7  + 2000.000000 r_2_2_4 > 42.318456
s_1_4 + s_1_3 + 1000 r_1_3_4 >= 2
- s_1_4 - s_1_3 - 1000 r_1_3_4 >= -1001
t_1_4 - t_1_3 + 1000.000000 u_1_3_4 - 6.219592 s_1_3  + 3.109796 s_1_8  + 3.109796 s_1_7  + 2000.000000 r_1_3_4 > 2.458900
s_2_4 + s_2_3 + 1000 r_2_3_4 >= 2
- s_2_4 - s_2_3 - 1000 r_2_3_4 >= -1001
t_2_4 - t_2_3 + 1000.000000 u_2_3_4 - 5.653373 s_2_3  + 2.826686 s_2_8  + 2.826686 s_2_7  + 2000.000000 r_2_3_4 > 5.673050
s_1_4 + s_1_5 + 1000 r_1_4_5 >= 2
- s_1_4 - s_1_5 - 1000 r_1_4_5 >= -1001
t_1_4 - t_1_5 - 1000.000000 u_1_4_5 - 3.109796 s_1_5  + 3.109796 s_1_8  + 2000.000000 r_1_4_5 > -989.312800
s_2_4 + s_2_5 + 1000 r_2_4_5 >= 2
- s_2_4 - s_2_5 - 1000 r_2_4_5 >= -1001
t_2_4 - t_2_5 - 1000.000000 u_2_4_5 - 2.826686 s_2_5  + 2.826686 s_2_8  + 2000.000000 r_2_4_5 > -979.078133
t_1_6 - t_1_4 - 1003.109796 s_1_4  + 3.109796 s_1_7  > -995.077033
t_1_6 - t_2_4 - 1002.826686 s_2_4  + 2.826686 s_2_7  > -991.697683
t_2_6 - t_1_4 - 1003.109796 s_1_4  + 3.109796 s_1_7  > -995.077033
t_2_6 - t_2_4 - 1002.826686 s_2_4  + 2.826686 s_2_7  > -991.697683
t_1_4 - t_1_7 - 1000.000000 s_1_7  > -947.856800
t_1_4 - t_2_7 - 1000.000000 s_2_7  > -955.148278
t_2_4 - t_1_7 - 1000.000000 s_1_7  > -947.856800
t_2_4 - t_2_7 - 1000.000000 s_2_7  > -955.148278
s_1_4 + s_1_8 + 1000 r_1_4_8 >= 2
- s_1_4 - s_1_8 - 1000 r_1_4_8 >= -1001
t_1_4 - t_1_8 - 1000.000000 u_1_4_8 - 0.000000 s_1_8  + 2000.000000 r_1_4_8 > -955.152700
s_2_4 + s_2_8 + 1000 r_2_4_8 >= 2
- s_2_4 - s_2_8 - 1000 r_2_4_8 >= -1001
t_2_4 - t_2_8 - 1000.000000 u_2_4_8 - 0.000000 s_2_8  + 2000.000000 r_2_4_8 > -956.843100
s_1_5 + s_1_1 + 1000 r_1_1_5 >= 2
- s_1_5 - s_1_1 - 1000 r_1_1_5 >= -1001
t_1_5 - t_1_1 + 1000.000000 u_1_1_5 - 6.219592 s_1_1  + 3.109796 s_1_8  + 3.109796 s_1_7  + 2000.000000 r_1_1_5 > 22.448300
s_2_5 + s_2_1 + 1000 r_2_1_5 >= 2
- s_2_5 - s_2_1 - 1000 r_2_1_5 >= -1001
t_2_5 - t_2_1 + 1000.000000 u_2_1_5 - 5.653373 s_2_1  + 2.826686 s_2_8  + 2.826686 s_2_7  + 2000.000000 r_2_1_5 > 41.946875
s_1_5 + s_1_2 + 1000 r_1_2_5 >= 2
- s_1_5 - s_1_2 - 1000 r_1_2_5 >= -1001
t_1_5 - t_1_2 + 1000.000000 u_1_2_5 - 3.109796 s_1_2  + 3.109796 s_1_7  + 2000.000000 r_1_2_5 > 22.459100
s_2_5 + s_2_2 + 1000 r_2_2_5 >= 2
- s_2_5 - s_2_2 - 1000 r_2_2_5 >= -1001
t_2_5 - t_2_2 + 1000.000000 u_2_2_5 - 2.826686 s_2_2  + 2.826686 s_2_7  + 2000.000000 r_2_2_5 > 42.318456
s_1_5 + s_1_3 + 1000 r_1_3_5 >= 2
- s_1_5 - s_1_3 - 1000 r_1_3_5 >= -1001
t_1_5 - t_1_3 + 1000.000000 u_1_3_5 - 6.219592 s_1_3  + 3.109796 s_1_8  + 3.109796 s_1_7  + 2000.000000 r_1_3_5 > 2.458900
s_2_5 + s_2_3 + 1000 r_2_3_5 >= 2
- s_2_5 - s_2_3 - 1000 r_2_3_5 >= -1001
t_2_5 - t_2_3 + 1000.000000 u_2_3_5 - 5.653373 s_2_3  + 2.826686 s_2_8  + 2.826686 s_2_7  + 2000.000000 r_2_3_5 > 5.673050
s_1_5 + s_1_4 + 1000 r_1_4_5 >= 2
- s_1_5 - s_1_4 - 1000 r_1_4_5 >= -1001
t_1_5 - t_1_4 + 1000.000000 u_1_4_5 - 3.109796 s_1_4  + 3.109796 s_1_7  + 2000.000000 r_1_4_5 > 4.922967
s_2_5 + s_2_4 + 1000 r_2_4_5 >= 2
- s_2_5 - s_2_4 - 1000 r_2_4_5 >= -1001
t_2_5 - t_2_4 + 1000.000000 u_2_4_5 - 2.826686 s_2_4  + 2.826686 s_2_7  + 2000.000000 r_2_4_5 > 8.302317
t_1_6 - t_1_5 - 1003.109796 s_1_5  + 3.109796 s_1_8  > -989.312800
t_1_6 - t_2_5 - 1002.826686 s_2_5  + 2.826686 s_2_8  > -979.078133
t_2_6 - t_1_5 - 1003.109796 s_1_5  + 3.109796 s_1_8  > -989.312800
t_2_6 - t_2_5 - 1002.826686 s_2_5  + 2.826686 s_2_8  > -979.078133
s_1_5 + s_1_7 + 1000 r_1_5_7 >= 2
- s_1_5 - s_1_7 - 1000 r_1_5_7 >= -1001
t_1_5 - t_1_7 - 1000.000000 u_1_5_7 - 0.000000 s_1_7  + 2000.000000 r_1_5_7 > -947.856800
s_2_5 + s_2_7 + 1000 r_2_5_7 >= 2
- s_2_5 - s_2_7 - 1000 r_2_5_7 >= -1001
t_2_5 - t_2_7 - 1000.000000 u_2_5_7 - 0.000000 s_2_7  + 2000.000000 r_2_5_7 > -955.148278
t_1_5 - t_1_8 - 1000.000000 s_1_8  > -955.152700
t_1_5 - t_2_8 - 1000.000000 s_2_8  > -956.843100
t_2_5 - t_1_8 - 1000.000000 s_1_8  > -955.152700
t_2_5 - t_2_8 - 1000.000000 s_2_8  > -956.843100
t_1_6 - t_1_7 - 1000.000000 s_1_7  > -947.856800
t_1_6 - t_2_7 - 1000.000000 s_2_7  > -955.148278
t_2_6 - t_1_7 - 1000.000000 s_1_7  > -947.856800
t_2_6 - t_2_7 - 1000.000000 s_2_7  > -955.148278
s_1_7 + s_1_5 + 1000 r_1_5_7 >= 2
- s_1_7 - s_1_5 - 1000 r_1_5_7 >= -1001
t_1_7 - t_1_5 + 1000.000000 u_1_5_7 - 3.109796 s_1_5  + 3.109796 s_1_8  + 2000.000000 r_1_5_7 > 10.687200
s_2_7 + s_2_5 + 1000 r_2_5_7 >= 2
- s_2_7 - s_2_5 - 1000 r_2_5_7 >= -1001
t_2_7 - t_2_5 + 1000.000000 u_2_5_7 - 2.826686 s_2_5  + 2.826686 s_2_8  + 2000.000000 r_2_5_7 > 20.921867
s_1_7 + s_1_8 + 1000 r_1_7_8 >= 2
- s_1_7 - s_1_8 - 1000 r_1_7_8 >= -1001
t_1_7 - t_1_8 - 1000.000000 u_1_7_8 - 0.000000 s_1_8  + 2000.000000 r_1_7_8 > -955.152700
s_2_7 + s_2_8 + 1000 r_2_7_8 >= 2
- s_2_7 - s_2_8 - 1000 r_2_7_8 >= -1001
t_2_7 - t_2_8 - 1000.000000 u_2_7_8 - 0.000000 s_2_8  + 2000.000000 r_2_7_8 > -956.843100
s_1_8 + s_1_2 + 1000 r_1_2_8 >= 2
- s_1_8 - s_1_2 - 1000 r_1_2_8 >= -1001
t_1_8 - t_1_2 + 1000.000000 u_1_2_8 - 3.109796 s_1_2  + 3.109796 s_1_7  + 2000.000000 r_1_2_8 > 22.459100
s_2_8 + s_2_2 + 1000 r_2_2_8 >= 2
- s_2_8 - s_2_2 - 1000 r_2_2_8 >= -1001
t_2_8 - t_2_2 + 1000.000000 u_2_2_8 - 2.826686 s_2_2  + 2.826686 s_2_7  + 2000.000000 r_2_2_8 > 42.318456
s_1_8 + s_1_4 + 1000 r_1_4_8 >= 2
- s_1_8 - s_1_4 - 1000 r_1_4_8 >= -1001
t_1_8 - t_1_4 + 1000.000000 u_1_4_8 - 3.109796 s_1_4  + 3.109796 s_1_7  + 2000.000000 r_1_4_8 > 4.922967
s_2_8 + s_2_4 + 1000 r_2_4_8 >= 2
- s_2_8 - s_2_4 - 1000 r_2_4_8 >= -1001
t_2_8 - t_2_4 + 1000.000000 u_2_4_8 - 2.826686 s_2_4  + 2.826686 s_2_7  + 2000.000000 r_2_4_8 > 8.302317
s_1_8 + s_1_7 + 1000 r_1_7_8 >= 2
- s_1_8 - s_1_7 - 1000 r_1_7_8 >= -1001
t_1_8 - t_1_7 + 1000.000000 u_1_7_8 - 0.000000 s_1_7  + 2000.000000 r_1_7_8 > 52.143200
s_2_8 + s_2_7 + 1000 r_2_7_8 >= 2
- s_2_8 - s_2_7 - 1000 r_2_7_8 >= -1001
t_2_8 - t_2_7 + 1000.000000 u_2_7_8 - 0.000000 s_2_7  + 2000.000000 r_2_7_8 > 44.851722
Binary
s_1_1
s_2_1
s_1_2
s_2_2
s_1_3
s_2_3
s_1_4
s_2_4
s_1_5
s_2_5
s_1_6
s_2_6
s_1_7
s_2_7
s_1_8
s_2_8
u_1_1_2
r_1_1_2
u_2_1_2
r_2_1_2
u_1_1_3
r_1_1_3
u_2_1_3
r_2_1_3
u_1_1_4
r_1_1_4
u_2_1_4
r_2_1_4
u_1_1_5
r_1_1_5
u_2_1_5
r_2_1_5
u_1_2_3
r_1_2_3
u_2_2_3
r_2_2_3
u_1_2_4
r_1_2_4
u_2_2_4
r_2_2_4
u_1_2_5
r_1_2_5
u_2_2_5
r_2_2_5
u_1_2_8
r_1_2_8
u_2_2_8
r_2_2_8
u_1_3_4
r_1_3_4
u_2_3_4
r_2_3_4
u_1_3_5
r_1_3_5
u_2_3_5
r_2_3_5
u_1_4_5
r_1_4_5
u_2_4_5
r_2_4_5
u_1_4_8
r_1_4_8
u_2_4_8
r_2_4_8
u_1_5_7
r_1_5_7
u_2_5_7
r_2_5_7
u_1_7_8
r_1_7_8
u_2_7_8
r_2_7_8

End
